(set-logic QF_UF)
(declare-fun car () Bool)
(declare-fun circuit () Bool)
(declare-fun clk () Bool)
(declare-fun prt () Bool)
(assert (not (not (not prt))))
(assert (not (not car)))
(assert (not (not clk)))
(assert (not (and (not prt) car clk)))
(check-sat)
(exit)
